GLPSOL--GLPK LP/MIP Solver 5.0
Parameter(s) specified in the command line:
 --lp ../modeles/5_334.lp --log 5_334.log
Reading problem data from '../modeles/5_334.lp'...
1691 rows, 3350 columns, 11705 non-zeros
1670 integer variables, all of which are binary
5052 lines were read
GLPK Integer Optimizer 5.0
1691 rows, 3350 columns, 11705 non-zeros
1670 integer variables, all of which are binary
Preprocessing...
1650 constraint coefficient(s) were reduced
1691 rows, 3345 columns, 11700 non-zeros
1670 integer variables, all of which are binary
Scaling...
 A: min|aij| =  1.434e-04  max|aij| =  4.000e+00  ratio =  2.789e+04
GM: min|aij| =  7.738e-02  max|aij| =  1.292e+01  ratio =  1.670e+02
EQ: min|aij| =  5.988e-03  max|aij| =  1.000e+00  ratio =  1.670e+02
2N: min|aij| =  4.590e-03  max|aij| =  1.757e+00  ratio =  3.827e+02
Constructing initial basis...
Size of triangular part is 1691
Solving LP relaxation...
GLPK Simplex Optimizer 5.0
1691 rows, 3345 columns, 11700 non-zeros
      0: obj =   1.000000000e+01 inf =   2.450e+01 (11)
    104: obj =   4.138113424e-01 inf =   0.000e+00 (0)
*   361: obj =  -2.235888224e+00 inf =   8.083e-15 (0)
OPTIMAL LP SOLUTION FOUND
Integer optimization begins...
Long-step dual simplex will be used
+   361: mip =     not found yet >=              -inf        (1; 0)
+  1118: >>>>>  -2.235888224e+00 >=  -2.235888224e+00 < 0.1% (755; 0)
+  1118: mip =  -2.235888224e+00 >=     tree is empty   0.0% (0; 1509)
INTEGER OPTIMAL SOLUTION FOUND
Time used:   1.8 secs
Memory used: 5.0 Mb (5262079 bytes)
